100
300
40
0 0
55 93
66 97
18 42
2 24
70 50
59 35
41 27
66 32
52 20
99 91
88 56
60 46
52 11
35 22
98 82
49 40
65 72
13 98
81 39
4 23
96 100
44 50
59 61
43 24
60 78
86 53
70 47
79 32
65 38
81 85
75 7
67 41
56 21
26 68
97 33
47 35
42 75
26 100
53 66
24 20
0 0
60
50
60
40
50
60
70
50
70
40
40
60
30
30
70
30
40
50
60
60
60
50
60
40
50
60
70
50
70
40
40
60
30
30
70
30
40
50
60
60
